
  32    1
  10

   0   0   8 2 3 4 5 6 7 8 11 
  10   2   5 27 19 14 10 9 
   2   4   5 27 19 18 14 9 
   1   2   7 21 20 19 18 15 13 12 
   7   8   7 26 21 20 19 18 13 12 
   7   9   7 26 25 21 20 18 16 15 
   6   7   6 26 25 21 20 18 15 
   8   6   6 26 20 18 17 16 13 
   1   6   5 25 21 20 15 12 
   1   4   4 26 20 16 13 
   1   6   4 25 19 16 15 
   8   8   4 31 22 17 16 
  10   7   5 30 25 24 23 22 
   3   7   2 25 16 
   1  10   3 30 22 17 
   8   5   4 30 29 24 23 
   1   2   3 29 24 23 
   6   8   3 29 24 23 
   8   8   3 30 29 23 
   8   4   2 29 23 
   6   4   2 30 23 
   6   7   2 29 28 
   9   8   1 28 
  10   6   1 28 
   3   6   1 31 
   7   5   1 29 
   3   9   1 31 
   8   6   1 32
   8   7   1 32
   7   6   1 32
  10   3   1 32
   0   0   0 
